400 4395.0 6480.0 6879.1 7567.0 8374.0
600 4440.0 5081.0 5956.5 6698.0 7567.0
800 3243.0 4659.0 4976.3 5126.0 6698.0
1000 3334.0 4279.0 4819.5 5092.0 7123.0
1200 1721.0 3501.0 3753.1 4395.0 5092.0
1400 1721.0 3343.0 3850.8 4681.0 5155.0
1600 1721.0 2616.0 3288.6 3721.0 4986.0
1800 1721.0 2554.0 3239.4 3860.0 4303.0
2000 1721.0 2194.0 2813.7 3426.0 3860.0
2200 1634.0 2129.0 2605.6 3278.0 3860.0
2400 1721.0 2153.0 2719.9 3234.0 4438.0
2600 1451.0 2041.0 2713.6 3376.0 4930.0
2800 1196.0 1896.0 2610.1 3376.0 4188.0
3000 1196.0 2041.0 2421.5 2821.0 3721.0
3200 1196.0 1588.0 2254.7 2821.0 3445.0
3400 1013.0 1449.0 2075.1 2539.0 3445.0
3600 929.0 1231.0 1932.3 2369.0 3445.0
3800 929.0 1196.0 1820.7 2462.0 3445.0
4000 798.0 1196.0 1743.4 2336.0 3445.0
4200 782.0 1082.0 1732.5 2261.0 3445.0
4400 645.0 1082.0 1757.4 2369.0 3101.0
4600 665.0 1082.0 1630.2 2106.0 3031.0
4800 764.0 798.0 1566.7 2336.0 2377.0
5000 782.0 1082.0 1566.6 2071.0 2377.0
5200 782.0 1082.0 1521.5 2071.0 2377.0
5400 782.0 1082.0 1316.3 1651.0 2071.0
5600 609.0 873.0 1248.5 1452.0 2071.0
5800 702.0 798.0 1116.7 1260.0 1846.0
6000 599.0 798.0 1041.2 1248.0 1782.0
6200 599.0 670.0 1059.7 1260.0 1782.0
6400 645.0 798.0 1006.0 1179.0 1782.0
6600 631.0 760.0 925.0 928.0 1782.0
6800 670.0 760.0 937.0 928.0 1782.0
7000 516.0 732.0 858.0 889.0 1504.0
7200 560.0 744.0 846.3 928.0 1268.0
7400 560.0 708.0 912.4 928.0 1934.0
7600 560.0 670.0 1060.9 1248.0 2369.0
7800 560.0 670.0 888.6 1027.0 1652.0
8000 528.0 670.0 853.9 928.0 1373.0
8200 528.0 670.0 834.6 928.0 1373.0
8400 393.0 670.0 872.1 928.0 1670.0
8600 482.0 670.0 861.7 928.0 1670.0
8800 482.0 670.0 839.6 991.0 1298.0
9000 482.0 670.0 822.5 928.0 1298.0
9200 482.0 670.0 863.7 991.0 1298.0
9400 482.0 670.0 809.6 928.0 1298.0
9600 482.0 670.0 790.3 892.0 1298.0
9800 482.0 670.0 790.3 892.0 1298.0
10000 441.0 560.0 767.4 892.0 1298.0
10200 482.0 670.0 790.3 892.0 1298.0
10400 482.0 670.0 790.3 892.0 1298.0
10600 441.0 560.0 767.4 892.0 1298.0
10800 482.0 670.0 790.3 892.0 1298.0
11000 482.0 670.0 790.3 892.0 1298.0
11200 482.0 560.0 757.4 892.0 1298.0
11400 482.0 560.0 755.4 872.0 1298.0
11600 482.0 560.0 757.4 892.0 1298.0
11800 482.0 560.0 755.4 872.0 1298.0
12000 482.0 670.0 788.1 892.0 1298.0
12200 482.0 560.0 757.4 892.0 1298.0
12400 482.0 560.0 757.4 892.0 1298.0
12600 482.0 560.0 757.4 892.0 1298.0
12800 482.0 560.0 757.4 892.0 1298.0
13000 482.0 560.0 698.3 760.0 928.0
13200 482.0 560.0 698.3 760.0 928.0
13400 441.0 560.0 693.3 760.0 928.0
13600 441.0 560.0 693.3 760.0 928.0
13800 482.0 560.0 698.3 760.0 928.0
14000 343.0 491.0 643.4 752.0 928.0
14200 343.0 491.0 643.4 752.0 928.0
14400 343.0 491.0 643.4 752.0 928.0
14600 343.0 491.0 643.4 752.0 928.0
14800 343.0 560.0 674.1 760.0 928.0
15000 343.0 560.0 693.4 760.0 991.0
15200 343.0 532.0 634.5 752.0 798.0
15400 343.0 532.0 634.5 752.0 798.0
15600 343.0 532.0 634.5 752.0 798.0
15800 343.0 532.0 653.8 752.0 991.0
16000 343.0 532.0 634.5 752.0 798.0
16200 343.0 532.0 634.5 752.0 798.0
16400 343.0 532.0 634.5 752.0 798.0
16600 343.0 532.0 653.8 752.0 991.0
16800 343.0 532.0 653.8 752.0 991.0
17000 343.0 532.0 634.5 752.0 798.0
17200 343.0 532.0 634.5 752.0 798.0
17400 343.0 532.0 634.5 752.0 798.0
17600 343.0 532.0 634.5 752.0 798.0
17800 343.0 532.0 634.5 752.0 798.0
18000 343.0 532.0 634.5 752.0 798.0
18200 343.0 532.0 634.5 752.0 798.0
18400 343.0 532.0 634.5 752.0 798.0
18600 343.0 532.0 634.5 752.0 798.0
18800 343.0 532.0 630.8 741.0 798.0
19000 343.0 532.0 630.8 741.0 798.0
19200 343.0 532.0 650.1 741.0 991.0
19400 343.0 532.0 650.1 741.0 991.0
19600 343.0 532.0 630.8 741.0 798.0
19800 343.0 532.0 630.8 741.0 798.0
20000 343.0 532.0 630.8 741.0 798.0
20200 343.0 532.0 650.1 741.0 991.0
20400 343.0 532.0 634.5 752.0 798.0
20600 343.0 532.0 634.5 752.0 798.0
20800 343.0 532.0 634.5 752.0 798.0
21000 343.0 532.0 634.5 752.0 798.0
21200 343.0 532.0 634.5 752.0 798.0
21400 343.0 532.0 634.5 752.0 798.0
21600 343.0 532.0 653.8 752.0 991.0
21800 343.0 532.0 634.5 752.0 798.0
22000 343.0 532.0 634.5 752.0 798.0
22200 343.0 532.0 634.5 752.0 798.0
22400 343.0 532.0 634.5 752.0 798.0
22600 343.0 532.0 634.5 752.0 798.0
22800 343.0 532.0 634.5 752.0 798.0
23000 343.0 532.0 634.5 752.0 798.0
23200 343.0 532.0 634.5 752.0 798.0
23400 343.0 532.0 637.1 760.0 798.0
23600 343.0 532.0 634.5 752.0 798.0
23800 343.0 532.0 653.8 752.0 991.0
24000 343.0 532.0 653.8 752.0 991.0
24200 343.0 532.0 634.5 752.0 798.0
24400 343.0 532.0 653.8 752.0 991.0
24600 343.0 532.0 634.5 752.0 798.0
24800 343.0 532.0 634.5 752.0 798.0
25000 343.0 532.0 634.5 752.0 798.0
25200 343.0 532.0 634.5 752.0 798.0
25400 343.0 532.0 634.5 752.0 798.0
25600 343.0 532.0 634.5 752.0 798.0
25800 343.0 532.0 634.5 752.0 798.0
26000 343.0 482.0 626.2 752.0 798.0
26200 343.0 482.0 617.2 752.0 798.0
26400 343.0 532.0 618.7 752.0 798.0
26600 343.0 532.0 618.7 752.0 798.0
26800 343.0 532.0 618.7 752.0 798.0
27000 343.0 532.0 618.7 752.0 798.0
27200 343.0 532.0 631.5 707.0 991.0
27400 343.0 532.0 631.5 707.0 991.0
27600 343.0 532.0 612.2 707.0 798.0
27800 343.0 532.0 612.2 707.0 798.0
28000 343.0 532.0 612.2 707.0 798.0
28200 343.0 532.0 638.0 752.0 991.0
28400 343.0 532.0 631.5 707.0 991.0
28600 343.0 532.0 631.5 707.0 991.0
28800 343.0 532.0 631.5 707.0 991.0
29000 343.0 532.0 612.2 707.0 798.0
29200 343.0 532.0 596.3 695.0 752.0
29400 343.0 532.0 631.5 707.0 991.0
29600 343.0 532.0 612.2 707.0 798.0
29800 343.0 532.0 612.2 707.0 798.0
30000 343.0 532.0 618.7 752.0 798.0
30200 343.0 532.0 618.7 752.0 798.0
30400 343.0 532.0 618.7 752.0 798.0
30600 343.0 532.0 618.7 752.0 798.0
30800 343.0 532.0 618.7 752.0 798.0
31000 343.0 532.0 618.7 752.0 798.0
31200 343.0 532.0 618.7 752.0 798.0
31400 343.0 532.0 618.7 752.0 798.0
31600 343.0 532.0 618.7 752.0 798.0
31800 343.0 532.0 608.4 752.0 798.0
32000 343.0 532.0 608.4 752.0 798.0
32200 343.0 532.0 627.7 752.0 991.0
32400 343.0 532.0 645.4 760.0 991.0
32600 343.0 532.0 636.4 760.0 798.0
32800 343.0 532.0 636.4 760.0 798.0
33000 343.0 532.0 636.4 760.0 798.0
33200 343.0 532.0 655.7 760.0 991.0
33400 343.0 507.0 588.3 707.0 798.0
33600 343.0 507.0 588.3 707.0 798.0
33800 343.0 507.0 588.3 707.0 798.0
34000 343.0 507.0 588.3 707.0 798.0
34200 343.0 507.0 607.6 707.0 991.0
34400 343.0 532.0 613.6 752.0 798.0
34600 343.0 532.0 613.6 752.0 798.0
34800 343.0 532.0 613.6 752.0 798.0
35000 343.0 532.0 613.6 752.0 798.0
35200 343.0 532.0 613.6 752.0 798.0
35400 343.0 499.0 583.7 707.0 760.0
35600 343.0 482.0 574.2 707.0 760.0
35800 343.0 482.0 576.4 707.0 760.0
36000 343.0 487.0 572.5 670.0 752.0
36200 343.0 482.0 576.4 707.0 760.0
36400 343.0 482.0 581.5 707.0 760.0
36600 343.0 482.0 581.5 707.0 760.0
36800 343.0 482.0 581.5 707.0 760.0
37000 343.0 482.0 581.5 707.0 760.0
37200 343.0 482.0 581.5 707.0 760.0
37400 343.0 482.0 581.5 707.0 760.0
37600 343.0 482.0 581.5 707.0 760.0
37800 343.0 482.0 580.5 707.0 760.0
38000 343.0 482.0 581.5 707.0 760.0
38200 343.0 482.0 581.5 707.0 760.0
38400 343.0 482.0 581.5 707.0 760.0
38600 343.0 482.0 581.5 707.0 760.0
38800 343.0 482.0 581.5 707.0 760.0
39000 343.0 482.0 581.5 707.0 760.0
39200 343.0 482.0 581.5 707.0 760.0
39400 343.0 482.0 581.5 707.0 760.0
39600 343.0 482.0 581.5 707.0 760.0
39800 343.0 482.0 581.5 707.0 760.0
40000 343.0 482.0 581.5 707.0 760.0
40200 343.0 482.0 581.5 707.0 760.0
40400 343.0 482.0 581.5 707.0 760.0
40600 343.0 482.0 581.5 707.0 760.0
40800 343.0 482.0 581.5 707.0 760.0
41000 343.0 482.0 581.5 707.0 760.0
41200 343.0 482.0 581.5 707.0 760.0
41400 343.0 426.0 569.0 707.0 760.0
41600 343.0 482.0 581.5 707.0 760.0
41800 343.0 482.0 581.5 707.0 760.0
42000 343.0 482.0 581.5 707.0 760.0
42200 343.0 482.0 581.5 707.0 760.0
42400 343.0 482.0 581.5 707.0 760.0
42600 343.0 482.0 581.5 707.0 760.0
42800 343.0 482.0 581.4 707.0 759.0
43000 343.0 482.0 581.5 707.0 760.0
43200 343.0 482.0 581.5 707.0 760.0
43400 343.0 482.0 581.5 707.0 760.0
43600 343.0 482.0 581.5 707.0 760.0
43800 343.0 482.0 581.5 707.0 760.0
44000 343.0 482.0 581.5 707.0 760.0
44200 343.0 482.0 581.5 707.0 760.0
44400 343.0 482.0 581.5 707.0 760.0
44600 343.0 482.0 581.5 707.0 760.0
44800 343.0 482.0 581.5 707.0 760.0
45000 343.0 482.0 581.5 707.0 760.0
45200 343.0 482.0 581.5 707.0 760.0
45400 343.0 482.0 581.5 707.0 760.0
45600 343.0 482.0 556.2 670.0 752.0
45800 343.0 482.0 556.2 670.0 752.0
46000 343.0 482.0 537.0 583.0 707.0
46200 343.0 482.0 537.0 583.0 707.0
46400 343.0 482.0 537.0 583.0 707.0
46600 343.0 482.0 537.0 583.0 707.0
46800 343.0 482.0 537.0 583.0 707.0
47000 343.0 482.0 537.0 583.0 707.0
47200 343.0 477.0 528.7 583.0 707.0
47400 343.0 482.0 537.0 583.0 707.0
47600 343.0 482.0 537.0 583.0 707.0
47800 343.0 477.0 528.7 583.0 707.0
48000 343.0 477.0 528.7 583.0 707.0
48200 343.0 477.0 528.7 583.0 707.0
48400 343.0 477.0 528.7 583.0 707.0
48600 343.0 477.0 510.5 560.0 707.0
48800 343.0 477.0 510.5 560.0 707.0
49000 343.0 477.0 528.7 583.0 707.0
49200 343.0 477.0 528.7 583.0 707.0
49400 343.0 477.0 528.7 583.0 707.0
49600 343.0 426.0 512.9 583.0 707.0
49800 343.0 426.0 512.9 583.0 707.0
50000 343.0 426.0 512.9 583.0 707.0
50200 343.0 426.0 512.9 583.0 707.0
50400 343.0 477.0 528.7 583.0 707.0
50600 343.0 477.0 528.7 583.0 707.0
50800 343.0 477.0 528.7 583.0 707.0
51000 343.0 477.0 528.7 583.0 707.0
51200 343.0 477.0 528.7 583.0 707.0
51400 343.0 477.0 528.7 583.0 707.0
51600 343.0 477.0 528.7 583.0 707.0
51800 343.0 477.0 528.7 583.0 707.0
52000 343.0 477.0 528.7 583.0 707.0
52200 343.0 477.0 528.7 583.0 707.0
52400 343.0 477.0 528.7 583.0 707.0
52600 343.0 477.0 528.7 583.0 707.0
52800 343.0 477.0 528.7 583.0 707.0
53000 343.0 477.0 528.7 583.0 707.0
53200 343.0 477.0 528.7 583.0 707.0
53400 343.0 477.0 528.7 583.0 707.0
53600 343.0 477.0 528.7 583.0 707.0
53800 343.0 477.0 528.7 583.0 707.0
54000 343.0 477.0 528.7 583.0 707.0
54200 343.0 477.0 528.7 583.0 707.0
54400 343.0 477.0 528.7 583.0 707.0
54600 343.0 477.0 528.7 583.0 707.0
54800 343.0 477.0 528.7 583.0 707.0
55000 343.0 477.0 528.7 583.0 707.0
55200 343.0 477.0 528.7 583.0 707.0
55400 343.0 477.0 528.7 583.0 707.0
55600 343.0 477.0 528.7 583.0 707.0
55800 343.0 441.0 505.8 560.0 707.0
56000 343.0 441.0 505.8 560.0 707.0
56200 343.0 441.0 505.8 560.0 707.0
56400 343.0 441.0 505.8 560.0 707.0
56600 343.0 441.0 505.8 560.0 707.0
56800 343.0 441.0 505.8 560.0 707.0
57000 343.0 441.0 505.8 560.0 707.0
57200 343.0 441.0 505.8 560.0 707.0
57400 343.0 441.0 505.8 560.0 707.0
57600 343.0 441.0 505.8 560.0 707.0
57800 343.0 441.0 505.8 560.0 707.0
58000 343.0 441.0 505.8 560.0 707.0
58200 343.0 441.0 505.8 560.0 707.0
58400 343.0 441.0 505.8 560.0 707.0
58600 343.0 441.0 505.8 560.0 707.0
58800 343.0 441.0 505.8 560.0 707.0
59000 343.0 441.0 505.8 560.0 707.0
59200 343.0 441.0 505.8 560.0 707.0
59400 343.0 441.0 505.8 560.0 707.0
59600 343.0 441.0 505.8 560.0 707.0
59800 343.0 441.0 505.8 560.0 707.0
60000 343.0 441.0 505.8 560.0 707.0
60200 343.0 441.0 505.8 560.0 707.0
60400 343.0 441.0 505.8 560.0 707.0
60600 343.0 441.0 505.8 560.0 707.0
60800 343.0 441.0 505.8 560.0 707.0
61000 343.0 441.0 505.8 560.0 707.0
61200 343.0 441.0 505.8 560.0 707.0
61400 343.0 441.0 505.8 560.0 707.0
61600 343.0 441.0 505.8 560.0 707.0
61800 343.0 441.0 505.8 560.0 707.0
62000 343.0 441.0 505.8 560.0 707.0
62200 343.0 441.0 505.8 560.0 707.0
62400 343.0 441.0 505.8 560.0 707.0
62600 343.0 441.0 505.8 560.0 707.0
62800 343.0 441.0 505.8 560.0 707.0
63000 343.0 441.0 505.8 560.0 707.0
63200 343.0 441.0 505.8 560.0 707.0
63400 343.0 441.0 505.8 560.0 707.0
63600 343.0 441.0 505.8 560.0 707.0
63800 343.0 441.0 505.8 560.0 707.0
64000 343.0 441.0 505.8 560.0 707.0
64200 343.0 441.0 505.8 560.0 707.0
64400 343.0 441.0 505.8 560.0 707.0
64600 343.0 441.0 505.8 560.0 707.0
64800 343.0 441.0 505.8 560.0 707.0
65000 343.0 441.0 505.8 560.0 707.0
65200 343.0 441.0 505.8 560.0 707.0
65400 343.0 441.0 505.8 560.0 707.0
65600 343.0 441.0 505.8 560.0 707.0
65800 343.0 441.0 505.8 560.0 707.0
66000 343.0 441.0 505.8 560.0 707.0
66200 343.0 441.0 505.8 560.0 707.0
66400 343.0 441.0 505.8 560.0 707.0
66600 343.0 441.0 505.8 560.0 707.0
66800 343.0 441.0 505.8 560.0 707.0
67000 343.0 441.0 505.8 560.0 707.0
67200 343.0 441.0 505.8 560.0 707.0
67400 343.0 441.0 505.8 560.0 707.0
67600 343.0 441.0 505.8 560.0 707.0
67800 343.0 441.0 505.8 560.0 707.0
68000 343.0 441.0 505.8 560.0 707.0
68200 343.0 441.0 505.8 560.0 707.0
68400 343.0 441.0 505.8 560.0 707.0
68600 343.0 441.0 505.8 560.0 707.0
68800 343.0 441.0 505.8 560.0 707.0
69000 343.0 441.0 505.8 560.0 707.0
69200 343.0 441.0 492.0 560.0 583.0
69400 343.0 441.0 486.9 532.0 569.0
69600 343.0 441.0 492.0 560.0 583.0
69800 343.0 441.0 492.0 560.0 583.0
70000 343.0 441.0 492.0 560.0 583.0
70200 343.0 441.0 492.0 560.0 583.0
70400 343.0 441.0 492.0 560.0 583.0
70600 343.0 441.0 492.0 560.0 583.0
70800 343.0 441.0 484.9 532.0 583.0
71000 343.0 441.0 484.9 532.0 583.0
71200 326.0 426.0 467.7 532.0 583.0
71400 326.0 426.0 467.7 532.0 583.0
71600 326.0 426.0 467.7 532.0 583.0
71800 326.0 426.0 467.7 532.0 583.0
72000 326.0 426.0 467.7 532.0 583.0
72200 326.0 426.0 467.7 532.0 583.0
72400 326.0 426.0 467.7 532.0 583.0
72600 326.0 426.0 467.7 532.0 583.0
72800 326.0 426.0 467.7 532.0 583.0
73000 326.0 426.0 467.7 532.0 583.0
73200 326.0 426.0 467.7 532.0 583.0
73400 326.0 426.0 462.4 507.0 583.0
73600 326.0 426.0 462.4 507.0 583.0
73800 326.0 426.0 462.4 507.0 583.0
74000 326.0 426.0 462.4 507.0 583.0
74200 326.0 426.0 462.4 507.0 583.0
74400 326.0 426.0 462.4 507.0 583.0
74600 326.0 426.0 462.4 507.0 583.0
74800 326.0 426.0 462.4 507.0 583.0
75000 326.0 426.0 462.4 507.0 583.0
75200 326.0 426.0 462.4 507.0 583.0
75400 326.0 426.0 462.4 507.0 583.0
75600 326.0 426.0 462.4 507.0 583.0
75800 326.0 426.0 462.4 507.0 583.0
76000 326.0 426.0 462.4 507.0 583.0
76200 326.0 426.0 462.4 507.0 583.0
76400 326.0 426.0 462.4 507.0 583.0
76600 326.0 426.0 462.4 507.0 583.0
76800 326.0 426.0 462.4 507.0 583.0
77000 326.0 426.0 462.4 507.0 583.0
77200 326.0 426.0 462.4 507.0 583.0
77400 326.0 426.0 462.4 507.0 583.0
77600 326.0 426.0 462.4 507.0 583.0
77800 326.0 426.0 462.4 507.0 583.0
78000 326.0 426.0 457.2 507.0 532.0
78200 326.0 426.0 457.2 507.0 532.0
78400 326.0 426.0 457.2 507.0 532.0
78600 326.0 426.0 457.2 507.0 532.0
78800 326.0 426.0 462.4 507.0 583.0
79000 326.0 426.0 462.4 507.0 583.0
79200 326.0 426.0 462.4 507.0 583.0
79400 326.0 426.0 462.4 507.0 583.0
79600 326.0 426.0 462.4 507.0 583.0
79800 326.0 426.0 462.4 507.0 583.0
80000 326.0 426.0 462.4 507.0 583.0
80200 326.0 426.0 462.4 507.0 583.0
80400 326.0 426.0 462.4 507.0 583.0
80600 326.0 426.0 462.4 507.0 583.0
80800 326.0 426.0 462.4 507.0 583.0
81000 326.0 426.0 462.4 507.0 583.0
81200 326.0 426.0 462.4 507.0 583.0
81400 326.0 426.0 462.4 507.0 583.0
81600 326.0 426.0 462.4 507.0 583.0
81800 326.0 426.0 462.4 507.0 583.0
82000 326.0 426.0 462.4 507.0 583.0
82200 326.0 426.0 462.4 507.0 583.0
82400 326.0 426.0 462.4 507.0 583.0
82600 326.0 426.0 462.4 507.0 583.0
82800 326.0 426.0 462.4 507.0 583.0
83000 326.0 426.0 462.4 507.0 583.0
83200 326.0 426.0 462.4 507.0 583.0
83400 326.0 426.0 462.4 507.0 583.0
83600 326.0 426.0 462.4 507.0 583.0
83800 326.0 426.0 462.4 507.0 583.0
84000 326.0 426.0 462.4 507.0 583.0
84200 326.0 382.0 452.4 507.0 583.0
84400 326.0 382.0 452.4 507.0 583.0
84600 326.0 426.0 462.4 507.0 583.0
84800 326.0 426.0 462.4 507.0 583.0
85000 326.0 426.0 462.4 507.0 583.0
85200 326.0 426.0 462.4 507.0 583.0
85400 326.0 426.0 462.4 507.0 583.0
85600 326.0 426.0 462.4 507.0 583.0
85800 326.0 426.0 462.4 507.0 583.0
86000 326.0 426.0 462.4 507.0 583.0
86200 326.0 426.0 462.4 507.0 583.0
86400 326.0 426.0 462.4 507.0 583.0
86600 326.0 426.0 462.4 507.0 583.0
86800 326.0 426.0 462.4 507.0 583.0
87000 326.0 426.0 462.4 507.0 583.0
87200 326.0 426.0 462.4 507.0 583.0
87400 326.0 426.0 462.4 507.0 583.0
87600 326.0 426.0 462.4 507.0 583.0
87800 326.0 426.0 462.4 507.0 583.0
88000 326.0 426.0 462.4 507.0 583.0
88200 326.0 426.0 462.4 507.0 583.0
88400 326.0 426.0 462.4 507.0 583.0
88600 326.0 426.0 462.4 507.0 583.0
88800 326.0 426.0 462.4 507.0 583.0
89000 326.0 426.0 462.4 507.0 583.0
89200 326.0 426.0 462.4 507.0 583.0
89400 326.0 426.0 462.4 507.0 583.0
89600 326.0 426.0 462.4 507.0 583.0
89800 326.0 426.0 462.4 507.0 583.0
90000 326.0 426.0 462.4 507.0 583.0
90200 326.0 426.0 462.4 507.0 583.0
90400 326.0 426.0 462.4 507.0 583.0
90600 326.0 426.0 462.4 507.0 583.0
90800 326.0 426.0 462.4 507.0 583.0
91000 326.0 426.0 462.4 507.0 583.0
91200 326.0 426.0 462.4 507.0 583.0
91400 326.0 426.0 462.4 507.0 583.0
91600 326.0 426.0 462.4 507.0 583.0
91800 326.0 426.0 462.4 507.0 583.0
92000 326.0 426.0 462.4 507.0 583.0
92200 326.0 426.0 462.4 507.0 583.0
92400 326.0 426.0 462.4 507.0 583.0
92600 326.0 426.0 462.4 507.0 583.0
92800 326.0 426.0 462.4 507.0 583.0
93000 326.0 426.0 462.4 507.0 583.0
93200 326.0 426.0 462.4 507.0 583.0
93400 326.0 426.0 462.4 507.0 583.0
93600 326.0 426.0 462.4 507.0 583.0
93800 326.0 426.0 462.4 507.0 583.0
94000 326.0 426.0 462.4 507.0 583.0
94200 326.0 348.0 449.0 507.0 583.0
94400 326.0 426.0 462.4 507.0 583.0
94600 326.0 426.0 462.4 507.0 583.0
94800 326.0 426.0 462.4 507.0 583.0
95000 326.0 426.0 462.4 507.0 583.0
95200 326.0 426.0 462.4 507.0 583.0
95400 326.0 426.0 462.4 507.0 583.0
95600 326.0 426.0 462.4 507.0 583.0
95800 326.0 426.0 462.4 507.0 583.0
96000 326.0 426.0 462.4 507.0 583.0
96200 326.0 426.0 462.4 507.0 583.0
96400 326.0 426.0 462.4 507.0 583.0
96600 326.0 426.0 462.4 507.0 583.0
96800 326.0 426.0 462.4 507.0 583.0
97000 326.0 426.0 462.4 507.0 583.0
97200 326.0 426.0 462.4 507.0 583.0
97400 326.0 426.0 462.4 507.0 583.0
97600 326.0 426.0 462.4 507.0 583.0
97800 326.0 426.0 462.4 507.0 583.0
98000 326.0 426.0 462.4 507.0 583.0
98200 326.0 426.0 462.4 507.0 583.0
98400 326.0 426.0 462.4 507.0 583.0
98600 326.0 426.0 462.4 507.0 583.0
98800 326.0 426.0 462.4 507.0 583.0
99000 326.0 426.0 462.4 507.0 583.0
99200 326.0 371.0 456.9 507.0 583.0
99400 326.0 371.0 456.9 507.0 583.0
99600 326.0 371.0 456.9 507.0 583.0
99800 326.0 371.0 456.9 507.0 583.0
100000 326.0 371.0 448.7 507.0 583.0
100200 326.0 343.0 440.0 507.0 583.0
100400 326.0 343.0 440.0 507.0 583.0
100600 326.0 343.0 440.0 507.0 583.0
100800 326.0 343.0 440.0 507.0 583.0
101000 326.0 343.0 440.0 507.0 583.0
101200 326.0 343.0 440.0 507.0 583.0
101400 326.0 371.0 456.9 507.0 583.0
101600 326.0 371.0 456.9 507.0 583.0
101800 326.0 371.0 456.9 507.0 583.0
102000 326.0 371.0 456.9 507.0 583.0
102200 326.0 371.0 456.9 507.0 583.0
102400 326.0 371.0 456.9 507.0 583.0
102600 326.0 371.0 456.9 507.0 583.0
102800 326.0 371.0 456.9 507.0 583.0
103000 326.0 371.0 456.9 507.0 583.0
103200 326.0 371.0 456.9 507.0 583.0
103400 326.0 371.0 456.9 507.0 583.0
103600 326.0 371.0 456.9 507.0 583.0
103800 326.0 371.0 456.9 507.0 583.0
104000 326.0 371.0 456.9 507.0 583.0
104200 326.0 371.0 456.9 507.0 583.0
104400 326.0 371.0 456.9 507.0 583.0
104600 326.0 371.0 456.9 507.0 583.0
104800 326.0 371.0 456.9 507.0 583.0
105000 326.0 371.0 456.9 507.0 583.0
105200 326.0 371.0 456.9 507.0 583.0
105400 326.0 371.0 456.9 507.0 583.0
105600 326.0 371.0 456.9 507.0 583.0
105800 326.0 371.0 456.9 507.0 583.0
106000 326.0 371.0 456.9 507.0 583.0
106200 326.0 371.0 456.9 507.0 583.0
106400 326.0 371.0 443.8 507.0 532.0
106600 326.0 371.0 456.9 507.0 583.0
106800 326.0 371.0 456.9 507.0 583.0
107000 326.0 371.0 456.9 507.0 583.0
107200 326.0 371.0 456.9 507.0 583.0
107400 326.0 371.0 456.9 507.0 583.0
107600 326.0 371.0 456.9 507.0 583.0
107800 326.0 371.0 456.9 507.0 583.0
108000 326.0 371.0 456.9 507.0 583.0
108200 326.0 371.0 456.9 507.0 583.0
108400 326.0 371.0 456.9 507.0 583.0
108600 326.0 371.0 456.9 507.0 583.0
108800 326.0 371.0 456.9 507.0 583.0
109000 326.0 371.0 456.9 507.0 583.0
109200 326.0 371.0 456.9 507.0 583.0
109400 326.0 371.0 456.9 507.0 583.0
109600 326.0 371.0 456.9 507.0 583.0
109800 326.0 371.0 456.9 507.0 583.0
110000 326.0 371.0 456.9 507.0 583.0
110200 326.0 371.0 456.9 507.0 583.0
110400 326.0 371.0 456.9 507.0 583.0
110600 326.0 371.0 456.9 507.0 583.0
110800 326.0 371.0 456.9 507.0 583.0
111000 326.0 371.0 456.9 507.0 583.0
111200 326.0 371.0 456.9 507.0 583.0
111400 326.0 371.0 456.9 507.0 583.0
111600 326.0 371.0 456.9 507.0 583.0
111800 326.0 371.0 456.9 507.0 583.0
112000 326.0 371.0 456.9 507.0 583.0
112200 326.0 371.0 456.9 507.0 583.0
112400 326.0 371.0 456.9 507.0 583.0
112600 326.0 371.0 456.9 507.0 583.0
112800 326.0 371.0 456.9 507.0 583.0
113000 326.0 371.0 456.9 507.0 583.0
113200 326.0 371.0 456.9 507.0 583.0
113400 326.0 371.0 456.9 507.0 583.0
113600 326.0 371.0 442.5 507.0 532.0
113800 326.0 371.0 442.5 507.0 532.0
114000 326.0 371.0 442.5 507.0 532.0
114200 326.0 371.0 442.5 507.0 532.0
